minizinc/sudoku_problems2/sudoku_p8.dzn
%
% sudoku_p8.dzn
% See http://www.hakank.org/minizinc/sudoku_gcc.mzn
% 
% This problem is problem 8 from
% Gecode's sudoku.cpp
% http://www.gecode.org/gecode-doc-latest/sudoku_8cpp-source.html
% 
x = array2d(1..n, 1..n, [   
% Puzzle 3 from http://www.sudoku.org.uk/bifurcation.htm
% 8
  _,  _,  _,  8,  _,  _,  _,  _,  6,
  _,  _,  1,  6,  2,  _,  4,  3,  _,
  4,  _,  _,  _,  7,  1,  _,  _,  2,
  _,  _,  7,  2,  _,  _,  _,  8,  _,
  _,  _,  _,  _,  1,  _,  _,  _,  _,
  _,  1,  _,  _,  _,  6,  2,  _,  _,
  1,  _,  _,  7,  3,  _,  _,  _,  4,
  _,  2,  6,  _,  4,  8,  1,  _,  _,
  3,  _,  _,  _,  _,  5,  _,  _,  _
]);

n = 9;


